
Gurobi 8.1.1 (mac64) logging started Sat May 30 23:11:49 2020

Changed value of parameter LogFile to gurobi_logs/2020-05-30_23:11:44-rproblem6_mode=feasibility_sdp_reduce.log
   Prev: gurobi.log  Default: 
Parameter MIPFocus unchanged
   Value: 0  Min: 0  Max: 3  Default: 0
Parameter SolutionLimit unchanged
   Value: 2000000000  Min: 1  Max: 2000000000  Default: 2000000000
Parameter LogToConsole unchanged
   Value: 1  Min: 0  Max: 1  Default: 1
Changed value of parameter TimeLimit to 10000.0
   Prev: 1e+100  Min: 0.0  Max: 1e+100  Default: 1e+100
Optimize a model with 13020 rows, 13860 columns and 33600 nonzeros
Variable types: 84 continuous, 13776 integer (840 binary)
Coefficient statistics:
  Matrix range     [1e+00, 1e+03]
  Objective range  [5e-01, 5e+00]
  Bounds range     [1e+00, 1e+00]
  RHS range        [1e+00, 3e+00]
Presolve removed 13020 rows and 13860 columns
Presolve time: 0.02s
Presolve: All rows and columns removed

Explored 0 nodes (0 simplex iterations) in 0.03 seconds
Thread count was 1 (of 8 available processors)

Solution count 1: 540 

Optimal solution found (tolerance 1.00e-04)
Best objective 5.400000000000e+02, best bound 5.400000000000e+02, gap 0.0000%

Gurobi 8.1.1 (mac64) logging started Sat May 30 23:11:53 2020

Changed value of parameter LogFile to gurobi_logs/2020-05-30_23:11:44-rproblem6_mode=feasibility_sdp_reduce.log
   Prev: gurobi.log  Default: 
Parameter MIPFocus unchanged
   Value: 0  Min: 0  Max: 3  Default: 0
Parameter SolutionLimit unchanged
   Value: 2000000000  Min: 1  Max: 2000000000  Default: 2000000000
Parameter LogToConsole unchanged
   Value: 1  Min: 0  Max: 1  Default: 1
Changed value of parameter TimeLimit to 10000.0
   Prev: 1e+100  Min: 0.0  Max: 1e+100  Default: 1e+100
Optimize a model with 139980 rows, 103426 columns and 5958018 nonzeros
Variable types: 10 continuous, 103416 integer (91320 binary)
Coefficient statistics:
  Matrix range     [5e-01, 2e+02]
  Objective range  [1e+00, 1e+00]
  Bounds range     [1e+00, 1e+00]
  RHS range        [1e+00, 4e+02]
Presolve removed 85822 rows and 48106 columns (presolve time = 5s) ...
Presolve removed 87802 rows and 48106 columns (presolve time = 10s) ...
Presolve removed 87802 rows and 48106 columns
Presolve time: 13.80s
Presolved: 52178 rows, 55320 columns, 1028168 nonzeros
Variable types: 0 continuous, 55320 integer (55320 binary)

Deterministic concurrent LP optimizer: primal and dual simplex
Showing first log only...


Root simplex log...

Iteration    Objective       Primal Inf.    Dual Inf.      Time
       0    5.7880000e+03   1.391125e+03   5.359494e+09     15s
    3076    6.9893571e+03   1.188847e+03   2.274289e+10     15s
    6694    8.0640000e+03   0.000000e+00   0.000000e+00     16s
Concurrent spin time: 0.00s

Solved with primal simplex

Root relaxation: objective 8.064000e+03, 6694 iterations, 1.17 seconds

    Nodes    |    Current Node    |     Objective Bounds      |     Work
 Expl Unexpl |  Obj  Depth IntInf | Incumbent    BestBd   Gap | It/Node Time

*    0     0               0    8064.0000000 8064.00000  0.00%     -   16s

Explored 0 nodes (8328 simplex iterations) in 16.46 seconds
Thread count was 8 (of 8 available processors)

Solution count 1: 8064 

Optimal solution found (tolerance 1.00e-04)
Best objective 8.064000000000e+03, best bound 8.064000000000e+03, gap 0.0000%
